NAME : pairopt.-192643.tour
COMMENT : Length = -192643
COMMENT : Found by LKH-3 [Keld Helsgaun] Tue Mar  4 23:52:12 2025
TYPE : TOUR
DIMENSION : 19
TOUR_SECTION
1
2
14
10
7
16
15
17
5
13
11
8
19
3
12
9
18
6
4
-1
EOF
